; benchmark generated from python API
(set-info :status unknown)
(declare-datatypes ((RealState 0)) (((RMk1 (rval1 Real)) (RMk2 (rval2 Real)))))
 (assert
 (forall ((|v17:0| Real) )(forall ((|v16:1| Real) )(forall ((|v15:2| Real) )(forall ((|v14:3| Real) )(forall ((|v13:4| Real) )(forall ((|v12:5| Real) )(exists ((|v11:6_st| RealState) (val!9132 Real) )(exists ((|v10:7_st| RealState) (val!9133 Real) )(exists ((|v9:8_st| RealState) (val!9134 Real) )(exists ((|v8:9_st| RealState) (val!9135 Real) )(exists ((|v7:10_st| RealState) (val!9136 Real) )(exists ((|v6:11_st| RealState) (val!9137 Real) )(forall ((|v5:12| Real) )(forall ((|v4:13| Real) )(forall ((|v3:14| Real) )(forall ((|v2:15| Real) )(forall ((|v1:16| Real) )(forall ((|v0:17| Real) )(let ((?x5584 (- 10.0)))
 (let ((?x4885 (rval2 |v11:6_st|)))
 (let ((?x2797 (- 20.0)))
 (let ((?x4312 (* ?x2797 ?x4885)))
 (let ((?x659 (* 7.0 |v1:16|)))
 (let ((?x1676 (- 8.0)))
 (let ((?x6566 (* ?x1676 |v13:4|)))
 (let ((?x5837 (+ (+ (+ (* (- 17.0) (rval2 |v9:8_st|)) (* 9.0 |v2:15|)) (* 17.0 |v12:5|)) ?x6566)))
 (let ((?x8351 (rval2 |v9:8_st|)))
 (let ((?x4907 (- 16.0)))
 (let ((?x5205 (* ?x4907 ?x8351)))
 (let ((?x713 (rval2 |v7:10_st|)))
 (let ((?x1483 (* 8.0 ?x713)))
 (let ((?x5072 (* 12.0 |v1:16|)))
 (let ((?x773 (* 3.0 |v13:4|)))
 (let ((?x634 (- 17.0)))
 (let ((?x2199 (* ?x634 |v3:14|)))
 (let ((?x7891 (+ (+ (* 14.0 |v1:16|) (* (- 13.0) |v2:15|)) ?x2199)))
 (let ((?x2644 (* 9.0 ?x8351)))
 (let ((?x8455 (* ?x634 |v0:17|)))
 (let ((?x6108 (* 5.0 ?x8351)))
 (let ((?x2025 (- 3.0)))
 (let ((?x6147 (* ?x2025 |v1:16|)))
 (let ((?x7109 (- 4.0)))
 (let ((?x3856 (* ?x7109 |v3:14|)))
 (let ((?x4258 (+ (+ (+ (* (- 13.0) |v3:14|) (* (- 7.0) (rval2 |v10:7_st|))) ?x3856) ?x6147)))
 (let (($x5161 (or (<= (+ (+ (+ ?x4258 ?x6108) ?x8455) ?x2644) 18.0) (<= (+ (+ (+ (+ ?x7891 ?x773) ?x5072) ?x1483) ?x5205) ?x5584))))
 (let ((?x1925 (- 15.0)))
 (let ((?x1953 (* ?x1925 |v17:0|)))
 (let ((?x5549 (* ?x2025 |v16:1|)))
 (let ((?x3951 (* ?x5584 |v15:2|)))
 (let ((?x1309 (* 17.0 ?x4885)))
 (let ((?x3093 (+ (+ (+ (* 5.0 |v15:2|) (* 20.0 |v2:15|)) (* (- 14.0) (rval2 |v8:9_st|))) ?x1309)))
 (let ((?x8743 (- 9.0)))
 (let ((?x741 (* 7.0 |v14:3|)))
 (let ((?x2621 (rval2 |v10:7_st|)))
 (let ((?x7020 (* ?x8743 ?x2621)))
 (let ((?x2525 (- 2.0)))
 (let ((?x2658 (* ?x2525 |v13:4|)))
 (let ((?x5391 (+ (+ (+ (+ (* (- 5.0) |v0:17|) (* ?x5584 |v16:1|)) (* 7.0 |v15:2|)) ?x2658) ?x7020)))
 (let (($x1127 (or (<= (+ (+ ?x5391 (* (- 6.0) |v16:1|)) ?x741) ?x8743) (<= (+ (+ (+ ?x3093 ?x3951) ?x5549) ?x1953) ?x634))))
 (let ((?x5845 (- 1.0)))
 (let ((?x588 (* 13.0 |v3:14|)))
 (let ((?x2029 (* 11.0 |v5:12|)))
 (let ((?x93 (* ?x5584 ?x2621)))
 (let ((?x4012 (* 8.0 |v13:4|)))
 (let ((?x4236 (+ (+ (+ (* 14.0 ?x8351) (* ?x2525 |v2:15|)) (* 0.0 (rval2 |v6:11_st|))) ?x4012)))
 (let ((?x1303 (* 6.0 |v1:16|)))
 (let ((?x1805 (* 6.0 |v16:1|)))
 (let ((?x1179 (* 3.0 |v14:3|)))
 (let ((?x8449 (* 20.0 |v5:12|)))
 (let ((?x1219 (+ (+ (+ (* ?x2025 |v15:2|) (* 6.0 |v5:12|)) (* ?x2025 (rval2 |v6:11_st|))) ?x8449)))
 (let (($x2123 (or (<= (+ (+ (+ ?x1219 ?x1179) ?x1805) ?x1303) 6.0) (<= (+ (+ (+ ?x4236 ?x93) ?x2029) ?x588) ?x5845))))
 (let (($x3269 (or (and $x2123 $x1127) (and $x5161 (<= (+ (+ (+ ?x5837 |v1:16|) ?x659) ?x4312) ?x5584)))))
 (let ((?x929 (* 12.0 |v15:2|)))
 (let ((?x7119 (* ?x1676 |v0:17|)))
 (let ((?x6429 (* 17.0 |v17:0|)))
 (let ((?x6150 (* ?x2797 |v16:1|)))
 (let ((?x2069 (+ (+ (+ (+ (* ?x2025 |v2:15|) (* ?x2797 |v1:16|)) (* 0.0 ?x4885)) ?x6150) ?x6429)))
 (let ((?x7402 (* 13.0 |v16:1|)))
 (let ((?x804 (* ?x634 |v5:12|)))
 (let ((?x1782 (+ (+ (+ (* ?x5845 |v16:1|) (* ?x634 |v1:16|)) (* (- 5.0) |v12:5|)) (* 20.0 (rval2 |v6:11_st|)))))
 (let (($x6119 (or (<= (+ (+ (+ ?x1782 (* 19.0 ?x8351)) ?x804) ?x7402) 17.0) (<= (+ (+ ?x2069 ?x7119) ?x929) 1.0))))
 (let ((?x8071 (* 10.0 |v12:5|)))
 (let ((?x3145 (* 18.0 ?x713)))
 (let ((?x7767 (* 2.0 |v5:12|)))
 (let ((?x382 (- 12.0)))
 (let ((?x852 (* ?x382 |v12:5|)))
 (let ((?x3496 (+ (+ (+ (* ?x382 (rval2 |v8:9_st|)) (* 8.0 ?x8351)) (* ?x1925 |v16:1|)) ?x852)))
 (let ((?x7816 (rval2 |v8:9_st|)))
 (let ((?x8367 (* ?x2025 ?x7816)))
 (let ((?x749 (- 14.0)))
 (let ((?x3381 (* ?x749 |v17:0|)))
 (let ((?x1243 (+ (+ (+ (+ (* ?x2797 |v13:4|) (* ?x2025 |v14:3|)) (* (- 6.0) ?x7816)) ?x3381) |v4:13|)))
 (let ((?x6632 (* ?x1676 ?x2621)))
 (let ((?x1457 (- 6.0)))
 (let ((?x7549 (* ?x1457 |v15:2|)))
 (let ((?x3332 (* 9.0 |v13:4|)))
 (let ((?x3450 (* 13.0 ?x7816)))
 (let ((?x7531 (+ (+ (+ (+ (* 4.0 |v1:16|) (* (- 19.0) |v4:13|)) (* ?x382 ?x713)) ?x3450) ?x3332)))
 (let (($x6161 (and (<= (+ (+ ?x7531 ?x7549) ?x6632) 1.0) (<= (+ (+ ?x1243 (* (- 11.0) |v15:2|)) ?x8367) ?x1676))))
 (let ((?x3852 (* ?x5845 ?x8351)))
 (let ((?x104 (* 7.0 |v5:12|)))
 (let ((?x5663 (+ (+ (+ (+ ?x6632 (* ?x2797 ?x8351)) (* (- 18.0) |v17:0|)) (* 4.0 |v17:0|)) (* ?x2797 ?x7816))))
 (let (($x1800 (and (and (<= (+ (+ ?x5663 ?x104) ?x3852) 10.0) $x6161) (or (<= (+ (+ (+ ?x3496 ?x7767) ?x3145) ?x8071) 18.0) $x6119))))
 (let ((?x2022 (* 10.0 |v2:15|)))
 (let ((?x7182 (* 14.0 |v2:15|)))
 (let ((?x8161 (rval2 |v6:11_st|)))
 (let ((?x5263 (- 11.0)))
 (let ((?x6798 (* ?x5263 ?x8161)))
 (let ((?x77 (+ (+ (+ (+ (+ ?x8367 (* ?x2025 |v17:0|)) ?x6429) (* 14.0 |v12:5|)) ?x6798) ?x7182)))
 (let ((?x4208 (* 0.0 |v12:5|)))
 (let ((?x2200 (+ (+ (+ (+ (* ?x4907 |v15:2|) (* 4.0 ?x2621)) (* 18.0 |v13:4|)) ?x4208) (* ?x634 |v17:0|))))
 (let (($x1778 (or (<= (+ (+ ?x2200 ?x3856) (* ?x7109 ?x8161)) 9.0) (<= (+ ?x77 ?x2022) 13.0))))
 (let ((?x2423 (* ?x7109 |v12:5|)))
 (let ((?x7937 (* ?x2797 |v0:17|)))
 (let ((?x1918 (+ (+ (+ (+ (* ?x7109 |v14:3|) (* ?x2025 |v2:15|)) (* 15.0 |v13:4|)) ?x7816) ?x2423)))
 (let ((?x4594 (- 18.0)))
 (let ((?x128 (* ?x1925 |v3:14|)))
 (let ((?x8361 (* 20.0 |v4:13|)))
 (let ((?x4805 (- 13.0)))
 (let ((?x5618 (* ?x4805 |v4:13|)))
 (let ((?x2682 (- 19.0)))
 (let ((?x3350 (* ?x2682 |v13:4|)))
 (let ((?x7735 (+ (+ (+ (+ (* 0.0 |v4:13|) (* ?x1457 |v5:12|)) (* 20.0 ?x7816)) ?x3350) ?x5618)))
 (let (($x984 (and (<= (+ (+ ?x7735 ?x8361) ?x128) ?x4594) (<= (+ (+ ?x1918 ?x7937) ?x2423) ?x2525))))
 (let ((?x762 (+ (+ (+ (+ (+ (* 20.0 ?x713) ?x5205) ?x3332) ?x8361) (* 13.0 ?x8351)) ?x2658)))
 (let ((?x2358 (* 18.0 |v2:15|)))
 (let ((?x6636 (* ?x382 |v17:0|)))
 (let ((?x7457 (* ?x5584 |v3:14|)))
 (let ((?x1949 (+ (+ (+ (+ (* ?x1676 |v16:1|) |v4:13|) (* ?x1925 |v13:4|)) (* ?x5263 ?x8351)) ?x7457)))
 (let (($x4521 (or (<= (+ (+ ?x1949 ?x6636) ?x2358) 8.0) (<= (+ ?x762 (* ?x1925 ?x8161)) ?x4805))))
 (let ((?x6661 (* 19.0 |v16:1|)))
 (let ((?x907 (* 19.0 |v17:0|)))
 (let ((?x6447 (* 16.0 ?x7816)))
 (let ((?x7201 (+ (+ (+ (+ (* ?x1676 ?x8161) (* ?x4805 ?x8351)) (* ?x7109 |v1:16|)) ?x6447) ?x3350)))
 (let ((?x6361 (* ?x5584 |v1:16|)))
 (let ((?x5530 (* 2.0 |v2:15|)))
 (let ((?x2819 (* 7.0 |v0:17|)))
 (let ((?x3008 (+ (+ (+ (+ (* ?x2025 ?x8351) (* 6.0 ?x4885)) (* ?x5584 ?x713)) ?x2819) ?x7119)))
 (let (($x8522 (or (<= (+ (+ ?x3008 ?x5530) ?x6361) 0.0) (<= (+ (+ ?x7201 ?x907) ?x6661) 19.0))))
 (let ((?x5401 (* ?x7109 |v0:17|)))
 (let ((?x7808 (* 6.0 ?x713)))
 (let ((?x2673 (* 12.0 |v13:4|)))
 (let ((?x7004 (+ (+ (+ (+ (* ?x2525 |v4:13|) |v13:4|) (* 16.0 |v5:12|)) (* 14.0 |v0:17|)) ?x2673)))
 (let ((?x1838 (- 7.0)))
 (let ((?x3851 (* ?x1838 ?x8351)))
 (let ((?x4038 (* ?x5263 |v3:14|)))
 (let ((?x1572 (+ (+ (+ (+ (* ?x1925 |v1:16|) (* ?x5845 ?x8161)) (* 16.0 |v13:4|)) ?x4038) (* ?x2797 |v15:2|))))
 (let (($x3755 (and (<= (+ (+ ?x1572 (* 16.0 |v16:1|)) ?x3851) ?x5584) (<= (+ (+ ?x7004 ?x7808) ?x5401) ?x5845))))
 (let ((?x3129 (+ (+ (+ (+ (* ?x8743 |v5:12|) ?x6566) (* ?x4594 |v12:5|)) (* (- 5.0) |v5:12|)) (* ?x4805 |v17:0|))))
 (let ((?x5094 (* ?x4594 |v2:15|)))
 (let ((?x649 (+ (+ (+ (+ (* ?x5584 ?x713) ?x8449) (* 18.0 |v16:1|)) (* 20.0 ?x7816)) ?x659)))
 (let (($x8304 (and (<= (+ (+ ?x649 ?x5094) ?x2199) ?x4805) (<= (+ (+ ?x3129 ?x2022) (* ?x5584 |v12:5|)) 11.0))))
 (let ((?x6441 (* 3.0 ?x8161)))
 (let ((?x6799 (* ?x2525 |v4:13|)))
 (let ((?x1021 (* ?x634 |v15:2|)))
 (let ((?x2574 (+ (+ (+ (+ (* 14.0 |v5:12|) (* ?x4805 |v3:14|)) (* 3.0 ?x8351)) ?x1021) ?x6799)))
 (let ((?x6988 (* 8.0 |v14:3|)))
 (let ((?x4772 (* 19.0 ?x713)))
 (let ((?x5665 (* ?x7109 |v1:16|)))
 (let ((?x4530 (* 15.0 ?x713)))
 (let ((?x887 (+ (+ (+ (+ (* 7.0 ?x4885) (* 4.0 |v15:2|)) (* 0.0 |v15:2|)) ?x4530) ?x5665)))
 (let (($x2875 (or (<= (+ (+ ?x887 ?x4772) ?x6988) ?x749) (<= (+ (+ ?x2574 ?x6441) (* ?x8743 |v14:3|)) 4.0))))
 (let ((?x1061 (* ?x1457 ?x8161)))
 (let ((?x8525 (* ?x1925 |v2:15|)))
 (let ((?x5846 (* 16.0 |v1:16|)))
 (let ((?x5581 (* ?x2682 |v1:16|)))
 (let ((?x2695 (+ (+ (+ (+ (* ?x1457 |v14:3|) (* ?x7109 |v4:13|)) (* ?x7109 ?x8351)) ?x5581) ?x5846)))
 (let ((?x3345 (* 8.0 |v2:15|)))
 (let ((?x597 (* 10.0 |v13:4|)))
 (let ((?x4093 (* 0.0 |v1:16|)))
 (let ((?x6070 (* ?x2025 |v17:0|)))
 (let ((?x4003 (+ (+ (+ (+ (* ?x4907 |v2:15|) (* ?x8743 ?x4885)) (* ?x1838 ?x4885)) ?x6070) ?x4093)))
 (let (($x879 (or (<= (+ (+ ?x4003 ?x597) ?x3345) ?x4805) (<= (+ (+ ?x2695 ?x8525) ?x1061) ?x634))))
 (let (($x3116 (and (or (or $x879 $x2875) (and $x8304 $x3755)) (or (or $x8522 $x4521) (or $x984 $x1778)))))
 (let ((?x4027 (* 8.0 |v1:16|)))
 (let ((?x2367 (+ (+ (+ (+ (+ (* ?x2025 |v5:12|) ?x1953) ?x3145) (* 18.0 ?x8351)) ?x4027) ?x6150)))
 (let ((?x1623 (* ?x7109 |v16:1|)))
 (let ((?x3194 (* 4.0 ?x713)))
 (let ((?x442 (* ?x5845 |v0:17|)))
 (let ((?x7118 (+ (+ (+ (+ (* 15.0 ?x8351) (* ?x2797 |v1:16|)) (* ?x4907 |v4:13|)) ?x442) ?x3194)))
 (let (($x882 (or (<= (+ (+ ?x7118 ?x2621) ?x1623) ?x2525) (<= (+ ?x2367 (* (- 5.0) ?x2621)) ?x2025))))
 (let ((?x793 (* 14.0 |v0:17|)))
 (let ((?x2253 (+ (+ (+ (+ (+ ?x3381 (* ?x2797 ?x8351)) ?x3194) (* (- 5.0) ?x8161)) ?x3852) ?x793)))
 (let ((?x8391 (* 20.0 |v2:15|)))
 (let ((?x7460 (* 2.0 ?x713)))
 (let ((?x2207 (+ (+ (+ (+ ?x4208 (* ?x7109 |v2:15|)) (* ?x1457 |v12:5|)) (* ?x1925 ?x2621)) (* 17.0 ?x2621))))
 (let (($x7376 (and (<= (+ (+ ?x2207 ?x7460) ?x8391) ?x2525) (<= (+ ?x2253 (* ?x1676 |v15:2|)) ?x5845))))
 (let ((?x5700 (* 15.0 |v5:12|)))
 (let ((?x5955 (* 13.0 |v4:13|)))
 (let ((?x1107 (+ (+ (+ (+ (* ?x1676 ?x4885) ?x5549) (* ?x2797 |v3:14|)) (* 2.0 |v16:1|)) ?x5955)))
 (let ((?x520 (* 15.0 |v3:14|)))
 (let ((?x1982 (* 13.0 |v14:3|)))
 (let ((?x8658 (* 8.0 |v5:12|)))
 (let ((?x1690 (+ (+ (+ (+ (* ?x2525 |v3:14|) (* ?x5584 ?x4885)) (* ?x5263 |v1:16|)) ?x8658) |v2:15|)))
 (let (($x3517 (and (<= (+ (+ ?x1690 ?x1982) ?x520) 19.0) (<= (+ (+ ?x1107 ?x5700) ?x5700) ?x1838))))
 (let ((?x6312 (* 14.0 |v16:1|)))
 (let ((?x4091 (* 8.0 |v3:14|)))
 (let ((?x4295 (* ?x4805 ?x2621)))
 (let ((?x1427 (+ (+ (+ (+ (* ?x8743 ?x713) (* ?x5845 |v3:14|)) (* 18.0 ?x4885)) ?x4295) ?x4091)))
 (let ((?x1495 (* ?x382 ?x7816)))
 (let ((?x5012 (* 7.0 |v4:13|)))
 (let ((?x6501 (+ (+ (+ (+ (* ?x4805 ?x4885) (* ?x4907 |v0:17|)) ?x1623) (* 5.0 |v4:13|)) ?x5012)))
 (let (($x7732 (or (<= (+ (+ ?x6501 ?x6429) ?x1495) 8.0) (<= (+ (+ ?x1427 (* 4.0 |v13:4|)) ?x6312) 16.0))))
 (let ((?x1857 (* ?x5584 |v2:15|)))
 (let ((?x272 (* 11.0 ?x8351)))
 (let ((?x356 (* 11.0 ?x4885)))
 (let ((?x1515 (+ (+ (+ (+ (* ?x1457 |v2:15|) (* ?x2525 ?x8351)) (* 17.0 ?x7816)) ?x356) ?x713)))
 (let (($x1960 (and (<= (+ (+ ?x1515 ?x272) ?x1857) 18.0) (and (or $x7732 $x3517) (or $x7376 $x882)))))
 (let ((?x6825 (* 16.0 ?x4885)))
 (let ((?x4875 (* 5.0 |v3:14|)))
 (let ((?x8200 (* 9.0 |v1:16|)))
 (let ((?x8500 (+ (+ (+ (+ (* 7.0 ?x4885) (* ?x1676 ?x8161)) (* 15.0 |v15:2|)) ?x3332) ?x8200)))
 (let ((?x4522 (* ?x634 |v4:13|)))
 (let ((?x2438 (* ?x1676 |v1:16|)))
 (let ((?x3682 (* 17.0 |v4:13|)))
 (let ((?x1872 (+ (+ (+ (+ (* 3.0 |v12:5|) (* ?x634 |v16:1|)) (* 20.0 |v15:2|)) ?x3682) (* 0.0 ?x8351))))
 (let (($x5883 (and (<= (+ (+ ?x1872 ?x2438) ?x4522) 5.0) (<= (+ (+ ?x8500 ?x4875) ?x6825) ?x382))))
 (let ((?x323 (- 5.0)))
 (let ((?x7385 (* ?x4805 ?x4885)))
 (let ((?x2792 (* 6.0 |v2:15|)))
 (let ((?x7365 (+ (+ (+ (+ (* 6.0 |v4:13|) (* 7.0 ?x713)) ?x7549) (* ?x1838 ?x713)) ?x2792)))
 (let ((?x7845 (* ?x323 |v3:14|)))
 (let ((?x4072 (+ (+ (+ (+ ?x1061 (* ?x4907 |v12:5|)) (* ?x4594 ?x2621)) (* 2.0 ?x4885)) ?x3350)))
 (let (($x3612 (or (<= (+ (+ ?x4072 ?x93) ?x7845) 13.0) (<= (+ (+ ?x7365 (* ?x4594 |v16:1|)) ?x7385) ?x323))))
 (let ((?x8741 (* 10.0 ?x713)))
 (let ((?x6193 (* ?x2525 |v12:5|)))
 (let ((?x5880 (* ?x7109 |v5:12|)))
 (let ((?x5932 (* 12.0 |v16:1|)))
 (let ((?x5793 (+ (+ (+ (+ (* ?x2797 |v3:14|) (* 14.0 |v12:5|)) (* ?x2525 ?x8351)) ?x5932) ?x5880)))
 (let ((?x2778 (* ?x5845 ?x8161)))
 (let ((?x3377 (+ (+ (+ (+ (* ?x749 ?x713) ?x4530) (* 7.0 |v12:5|)) (* 17.0 |v5:12|)) ?x2778)))
 (let ((?x7539 (* 13.0 |v5:12|)))
 (let ((?x873 (* 8.0 |v16:1|)))
 (let ((?x5580 (* 18.0 ?x8351)))
 (let ((?x1446 (* 18.0 ?x4885)))
 (let ((?x1462 (+ (+ (+ (+ (* 6.0 ?x4885) (* ?x2682 ?x2621)) (* 18.0 |v5:12|)) ?x1446) ?x5580)))
 (let (($x3042 (and (<= (+ (+ ?x1462 ?x873) ?x7539) 13.0) (<= (+ (+ ?x3377 |v0:17|) ?x356) ?x2525))))
 (let ((?x1761 (* ?x2525 |v5:12|)))
 (let ((?x4445 (* 2.0 |v17:0|)))
 (let ((?x6892 (+ (+ (+ (+ (* ?x5263 |v17:0|) ?x929) (* 9.0 |v3:14|)) (* ?x1457 |v2:15|)) (* 5.0 |v13:4|))))
 (let ((?x6074 (* 4.0 ?x8351)))
 (let ((?x8546 (* 7.0 ?x8161)))
 (let ((?x5656 (* ?x5845 |v16:1|)))
 (let ((?x1380 (+ (+ (+ (+ (* 14.0 |v15:2|) (* 5.0 |v2:15|)) (* 5.0 |v15:2|)) ?x5656) ?x8546)))
 (let (($x8196 (or (<= (+ (+ ?x1380 ?x6074) ?x2819) 2.0) (<= (+ (+ ?x6892 ?x4445) ?x1761) ?x4907))))
 (let ((?x5005 (* 2.0 |v16:1|)))
 (let ((?x3242 (+ (+ (+ (+ ?x8391 (* ?x5584 |v17:0|)) (* 4.0 |v0:17|)) (* 15.0 ?x7816)) ?x5005)))
 (let ((?x2501 (* 11.0 |v4:13|)))
 (let ((?x4456 (* ?x5845 |v12:5|)))
 (let ((?x7686 (+ (+ (+ (+ (* 7.0 ?x713) (* 14.0 ?x713)) (* ?x2797 |v12:5|)) ?x4456) ?x2501)))
 (let ((?x8749 (* 19.0 |v3:14|)))
 (let ((?x8104 (* ?x8743 |v3:14|)))
 (let ((?x576 (+ (+ (+ (+ (* 0.0 |v3:14|) (* 14.0 |v12:5|)) (* ?x4805 |v0:17|)) ?x2673) ?x8104)))
 (let (($x1327 (or (<= (+ (+ ?x576 ?x8749) ?x520) 7.0) (<= (+ (+ ?x7686 (* ?x5263 |v12:5|)) ?x3194) 17.0))))
 (let ((?x8053 (* 0.0 |v0:17|)))
 (let ((?x2221 (+ (+ (+ (+ (* 5.0 |v14:3|) ?x1179) (* 17.0 |v3:14|)) (* ?x2682 |v3:14|)) ?x442)))
 (let ((?x96 (* ?x2797 |v4:13|)))
 (let ((?x3254 (* ?x1676 ?x713)))
 (let ((?x6401 (+ (+ (+ (+ (+ (* 6.0 |v17:0|) (* 9.0 |v14:3|)) ?x8361) ?x1021) ?x3254) ?x1446)))
 (let (($x8703 (and (<= (+ ?x6401 ?x96) 15.0) (<= (+ (+ ?x2221 ?x8053) (* ?x4594 ?x713)) 14.0))))
 (let (($x5418 (and (or $x8703 $x1327) (and (<= (+ (+ ?x3242 ?x6988) (* ?x1838 |v16:1|)) 16.0) $x8196))))
 (let (($x574 (or $x5418 (and (or $x3042 (<= (+ (+ ?x5793 ?x6193) ?x8741) ?x1838)) (and $x3612 $x5883)))))
 (let ((?x671 (* 18.0 ?x7816)))
 (let ((?x6610 (* 6.0 |v4:13|)))
 (let ((?x8180 (+ (+ (+ (+ (+ ?x2644 (* ?x1925 |v4:13|)) ?x3332) (* 4.0 |v2:15|)) ?x6610) ?x671)))
 (let ((?x4450 (* ?x323 ?x8161)))
 (let ((?x6949 (* 18.0 |v12:5|)))
 (let ((?x2102 (+ (+ (+ (+ (* 3.0 |v15:2|) (* ?x5584 ?x8351)) (* ?x1457 |v0:17|)) ?x6949) ?x4450)))
 (let ((?x3922 (* ?x323 |v2:15|)))
 (let ((?x4420 (* 0.0 |v17:0|)))
 (let ((?x7168 (+ (+ (+ (+ ?x6193 (* 14.0 |v12:5|)) (* ?x1838 ?x2621)) (* 10.0 |v1:16|)) ?x4420)))
 (let (($x3580 (or (<= (+ (+ ?x7168 ?x3922) ?x773) ?x5584) (<= (+ (+ ?x2102 ?x2438) (* 17.0 ?x8161)) 3.0))))
 (let ((?x8477 (* ?x2025 ?x8161)))
 (let ((?x6486 (* 6.0 |v5:12|)))
 (let ((?x1360 (+ (+ (+ (+ ?x4530 (* 20.0 |v15:2|)) (* ?x5584 |v16:1|)) (* ?x749 |v4:13|)) ?x6486)))
 (let ((?x4101 (* 5.0 |v17:0|)))
 (let ((?x7055 (* ?x2025 |v12:5|)))
 (let ((?x1308 (+ (+ (+ (+ ?x3254 (* 17.0 |v14:3|)) (* 8.0 |v12:5|)) (* ?x1925 |v0:17|)) ?x7055)))
 (let (($x1528 (and (<= (+ (+ ?x1308 ?x4101) ?x1021) ?x2797) (<= (+ (+ ?x1360 ?x8477) (* ?x634 |v12:5|)) 6.0))))
 (let ((?x72 (* 12.0 ?x7816)))
 (let ((?x2761 (* ?x1925 |v0:17|)))
 (let ((?x6323 (+ (+ (+ (+ (* 14.0 |v1:16|) (* ?x634 ?x4885)) (* 18.0 |v17:0|)) ?x3851) ?x2761)))
 (let ((?x5714 (* 0.0 ?x8161)))
 (let ((?x3469 (+ (+ (+ (+ (+ (+ ?x2022 ?x6447) ?x4522) ?x5714) |v14:3|) (* 20.0 |v16:1|)) ?x5714)))
 (let ((?x3329 (* 15.0 |v4:13|)))
 (let ((?x871 (* ?x749 |v2:15|)))
 (let ((?x318 (+ (+ (+ (+ (+ (+ ?x7816 ?x6070) ?x7055) (* 19.0 |v13:4|)) ?x4312) ?x871) ?x3329)))
 (let ((?x4733 (* 0.0 ?x2621)))
 (let ((?x9072 (+ (+ (+ (+ (+ (+ (* ?x7109 ?x7816) ?x4295) ?x8455) ?x7460) ?x4027) ?x7816) ?x4733)))
 (let (($x7825 (or (or (<= ?x9072 ?x1925) (<= ?x318 17.0)) (and (<= ?x3469 ?x1925) (<= (+ (+ ?x6323 ?x72) (* ?x1676 ?x7816)) ?x4907)))))
 (let ((?x2688 (* ?x5263 |v13:4|)))
 (let ((?x6671 (* ?x323 |v0:17|)))
 (let ((?x4113 (+ (+ (+ (+ (* 10.0 |v14:3|) (* ?x5845 |v14:3|)) ?x104) (* ?x8743 |v0:17|)) ?x6671)))
 (let ((?x3005 (* 14.0 |v4:13|)))
 (let ((?x2750 (+ (+ (+ (* ?x1676 |v12:5|) (* 14.0 |v15:2|)) (* 6.0 |v15:2|)) (* ?x4594 ?x7816))))
 (let (($x126 (and (<= (+ (+ (+ ?x2750 (* 16.0 ?x2621)) (* 14.0 ?x4885)) ?x3005) 14.0) (<= (+ (+ ?x4113 ?x2688) ?x4530) 0.0))))
 (let ((?x5 (* ?x4907 |v15:2|)))
 (let ((?x5994 (* 16.0 |v15:2|)))
 (let ((?x1981 (+ (+ (+ (+ (* 14.0 |v5:12|) ?x5932) ?x4456) (* 5.0 ?x4885)) (* ?x323 ?x4885))))
 (let ((?x2753 (* 19.0 ?x4885)))
 (let ((?x3919 (+ (+ (+ (+ (* ?x2682 ?x2621) ?x871) ?x8161) (* 11.0 |v1:16|)) (* ?x2525 |v17:0|))))
 (let (($x8578 (and (<= (+ (+ ?x3919 (* 18.0 |v15:2|)) ?x2753) 9.0) (<= (+ (+ ?x1981 ?x5994) ?x5) 11.0))))
 (let ((?x775 (* ?x749 ?x713)))
 (let ((?x3594 (* 2.0 ?x4885)))
 (let ((?x5287 (+ (+ (+ (+ (* ?x5845 |v1:16|) (* ?x5584 |v17:0|)) ?x5932) (* ?x323 ?x8351)) ?x8361)))
 (let ((?x3146 (* ?x5263 |v17:0|)))
 (let ((?x2060 (* ?x8743 ?x713)))
 (let ((?x3924 (+ (+ (+ (* 14.0 ?x8351) (* 5.0 |v15:2|)) (* ?x1676 |v12:5|)) (* 16.0 ?x713))))
 (let ((?x5934 (* 4.0 |v5:12|)))
 (let ((?x7057 (* ?x1838 |v12:5|)))
 (let ((?x8674 (+ (+ (+ (+ (* ?x634 |v14:3|) ?x7020) (* ?x1925 |v1:16|)) (* 8.0 |v15:2|)) (* ?x5584 ?x7816))))
 (let (($x3413 (or (<= (+ (+ ?x8674 ?x7057) ?x5934) 0.0) (<= (+ (+ (+ ?x3924 ?x929) ?x2060) ?x3146) 17.0))))
 (let (($x870 (or (or (and $x3413 (<= (+ (+ ?x5287 ?x3594) ?x775) ?x382)) (and $x8578 $x126)) (or $x7825 (and $x1528 $x3580)))))
 (let ((?x3393 (* 15.0 |v15:2|)))
 (let ((?x2072 (* 20.0 |v16:1|)))
 (let ((?x3537 (+ (+ (+ (+ (* ?x4907 |v13:4|) (* 10.0 |v16:1|)) (* 10.0 |v4:13|)) ?x2072) (* ?x4907 ?x7816))))
 (let ((?x1592 (* 18.0 |v16:1|)))
 (let ((?x2969 (* ?x8743 |v1:16|)))
 (let ((?x6804 (+ (+ (+ (+ (* 13.0 ?x4885) (* 12.0 ?x2621)) (* ?x4594 |v1:16|)) ?x2969) (* ?x323 |v13:4|))))
 (let (($x6658 (and (<= (+ (+ ?x6804 ?x6636) ?x1592) 6.0) (<= (+ (+ ?x3537 ?x5665) ?x3393) ?x5845))))
 (let ((?x6071 (* ?x1676 |v3:14|)))
 (let ((?x273 (+ (+ (+ (+ (+ ?x7460 (* 0.0 |v14:3|)) ?x4093) (* 18.0 |v13:4|)) ?x6071) ?x5549)))
 (let ((?x9166 (* ?x1838 ?x2621)))
 (let ((?x3835 (+ (+ (+ (+ (* 20.0 |v15:2|) (* ?x749 ?x4885)) ?x2753) (* ?x1838 |v13:4|)) (* ?x7109 ?x713))))
 (let (($x4949 (and (<= (+ (+ ?x3835 (* ?x7109 ?x2621)) ?x9166) 16.0) (<= (+ ?x273 ?x2969) 18.0))))
 (let ((?x2906 (* 12.0 |v4:13|)))
 (let ((?x8667 (+ (+ (+ (* ?x749 |v15:2|) (* ?x382 |v3:14|)) (* ?x4907 |v2:15|)) (* 19.0 |v14:3|))))
 (let ((?x5825 (* 4.0 ?x2621)))
 (let ((?x6324 (* 15.0 |v16:1|)))
 (let ((?x2520 (* 7.0 |v17:0|)))
 (let ((?x5192 (+ (+ (+ (+ ?x4733 (* 6.0 |v12:5|)) (* ?x2025 |v5:12|)) (* 11.0 |v15:2|)) ?x2520)))
 (let (($x7418 (and (<= (+ (+ ?x5192 ?x6324) ?x5825) 11.0) (<= (+ (+ (+ ?x8667 (* ?x1925 ?x7816)) ?x2906) ?x6566) ?x2682))))
 (let ((?x3552 (+ (+ (+ (+ (+ (* ?x8743 |v2:15|) (* 11.0 |v12:5|)) ?x6147) ?x356) ?x6798) ?x6429)))
 (let ((?x8013 (* ?x2797 |v2:15|)))
 (let ((?x3756 (+ (+ (+ (+ (+ ?x1982 ?x3594) (* 11.0 ?x8161)) ?x5656) (* 13.0 |v0:17|)) (* ?x1838 ?x8161))))
 (let (($x5890 (or (and (and (<= (+ ?x3756 ?x8013) 19.0) (<= (+ ?x3552 ?x4450) ?x323)) $x7418) (and $x4949 $x6658))))
 (let ((?x2209 (* ?x634 |v16:1|)))
 (let ((?x1513 (* ?x323 |v1:16|)))
 (let ((?x3601 (+ (+ (+ (+ (+ (* 13.0 |v0:17|) (* ?x382 |v16:1|)) ?x5401) ?x6312) ?x741) ?x1513)))
 (let ((?x3873 (* 20.0 |v17:0|)))
 (let ((?x8101 (* 14.0 |v1:16|)))
 (let ((?x5340 (* 5.0 |v5:12|)))
 (let ((?x657 (+ (+ (+ (* 4.0 |v3:14|) (* 5.0 ?x7816)) (* ?x8743 ?x4885)) (* ?x2797 ?x2621))))
 (let (($x3976 (or (<= (+ (+ (+ ?x657 ?x5340) ?x8101) ?x3873) 14.0) (<= (+ ?x3601 ?x2209) ?x4594))))
 (let ((?x914 (* 17.0 |v0:17|)))
 (let ((?x68 (+ (+ (+ (* ?x4594 ?x4885) (* ?x2025 |v3:14|)) (* 3.0 |v12:5|)) (* ?x4907 |v14:3|))))
 (let ((?x5507 (* 4.0 |v0:17|)))
 (let ((?x4437 (* ?x4594 |v17:0|)))
 (let ((?x4432 (* ?x5845 |v14:3|)))
 (let ((?x7489 (+ (+ (+ (+ (* ?x8743 |v16:1|) (* 19.0 ?x8161)) (* 5.0 |v2:15|)) ?x4432) (* 0.0 ?x713))))
 (let (($x4190 (or (<= (+ (+ ?x7489 ?x4437) ?x5507) ?x4594) (<= (+ (+ (+ ?x68 ?x2060) ?x914) |v14:3|) 14.0))))
 (let ((?x7408 (* ?x4805 |v1:16|)))
 (let ((?x6349 (* 7.0 |v12:5|)))
 (let ((?x5392 (+ (+ (+ (+ (* ?x4907 |v3:14|) ?x7057) (* 0.0 |v13:4|)) ?x5955) (* 13.0 ?x8161))))
 (let ((?x2611 (+ (+ (+ (+ (+ (+ ?x7402 ?x8391) ?x6825) ?x8477) (* 10.0 |v1:16|)) ?x741) ?x3922)))
 (let ((?x2003 (* ?x1676 ?x4885)))
 (let ((?x4204 (* ?x749 |v3:14|)))
 (let ((?x2531 (+ (+ (+ (+ (+ (+ ?x852 (* 10.0 ?x7816)) ?x3450) ?x4208) ?x2072) ?x4204) ?x2003)))
 (let ((?x1256 (* ?x2797 |v3:14|)))
 (let ((?x9 (* 19.0 |v0:17|)))
 (let ((?x2360 (* ?x1676 |v2:15|)))
 (let ((?x7072 (+ (+ (+ (+ (* 0.0 |v16:1|) (* ?x7109 ?x8351)) (* 3.0 |v0:17|)) ?x3856) ?x2360)))
 (let ((?x2914 (* 9.0 |v3:14|)))
 (let ((?x282 (+ (+ (+ (+ (* ?x8743 |v4:13|) (* 4.0 ?x7816)) ?x3951) (* ?x2025 ?x8351)) ?x8053)))
 (let (($x7663 (and (<= (+ (+ ?x282 ?x5656) ?x2914) 17.0) (<= (+ (+ ?x7072 ?x9) ?x1256) ?x7109))))
 (let ((?x1919 (* 16.0 |v17:0|)))
 (let ((?x3853 (+ (+ (+ (+ (+ ?x356 (* 7.0 ?x2621)) (* ?x2525 |v1:16|)) ?x8071) ?x2819) ?x1483)))
 (let ((?x565 (* 10.0 |v15:2|)))
 (let ((?x8267 (* 15.0 ?x8351)))
 (let ((?x8266 (+ (+ (+ (+ ?x6661 (* ?x7109 |v14:3|)) (* ?x1457 |v13:4|)) (* ?x749 ?x2621)) ?x8267)))
 (let ((?x978 (* 17.0 |v3:14|)))
 (let ((?x8859 (+ (+ (+ (+ (* ?x2682 |v16:1|) ?x8391) (* ?x749 |v12:5|)) (* ?x5584 |v14:3|)) ?x6661)))
 (let ((?x8940 (* 0.0 |v13:4|)))
 (let ((?x4416 (* 6.0 ?x7816)))
 (let ((?x8147 (+ (+ (+ (+ (* 5.0 ?x713) (* 16.0 |v3:14|)) (* ?x4805 |v14:3|)) ?x4416) ?x4091)))
 (let (($x6084 (or (<= (+ (+ ?x8147 |v15:2|) ?x8940) ?x7109) (<= (+ (+ ?x8859 ?x978) ?x1805) ?x7109))))
 (let (($x3762 (and $x6084 (and (<= (+ (+ ?x8266 ?x565) ?x2022) 8.0) (<= (+ ?x3853 ?x1919) 14.0)))))
 (let ((?x4503 (* ?x4907 |v0:17|)))
 (let ((?x1860 (+ (+ (+ (+ (+ (* ?x8743 ?x8351) (* ?x2797 |v17:0|)) ?x3350) ?x8940) ?x1919) ?x272)))
 (let ((?x6744 (* ?x1457 |v0:17|)))
 (let ((?x711 (+ (+ (+ (+ ?x1919 (* 2.0 ?x7816)) (* ?x8743 |v2:15|)) (* ?x4907 |v5:12|)) ?x6744)))
 (let (($x6820 (and (<= (+ (+ ?x711 (* 14.0 ?x8161)) (* 7.0 |v16:1|)) 11.0) (<= (+ ?x1860 ?x4503) 0.0))))
 (let ((?x3405 (+ (+ (+ (+ (+ (* ?x1457 |v2:15|) ?x4522) (* ?x1457 |v14:3|)) ?x1982) ?x6566) ?x7119)))
 (let ((?x4402 (* 14.0 |v17:0|)))
 (let ((?x4442 (* 13.0 |v15:2|)))
 (let ((?x6917 (+ (+ (+ (+ (+ ?x9 ?x2688) (* 15.0 |v13:4|)) (* ?x1925 |v4:13|)) ?x4442) ?x4402)))
 (let (($x5087 (or (<= (+ ?x6917 (* ?x4805 |v13:4|)) 0.0) (<= (+ ?x3405 (* ?x1925 ?x8351)) 2.0))))
 (let ((?x8869 (* 10.0 |v3:14|)))
 (let ((?x4188 (* ?x1457 |v14:3|)))
 (let ((?x7629 (+ (+ (+ (+ ?x2753 (* 9.0 |v16:1|)) (* 9.0 ?x4885)) (* 12.0 |v3:14|)) ?x4188)))
 (let ((?x6873 (* 20.0 ?x4885)))
 (let ((?x3817 (+ (+ (+ (+ (* ?x5845 ?x4885) (* 13.0 ?x4885)) ?x4522) (* ?x2682 |v2:15|)) ?x5507)))
 (let (($x4955 (and (<= (+ (+ ?x3817 ?x4420) ?x6873) 9.0) (<= (+ (+ ?x7629 ?x8869) ?x597) ?x5845))))
 (let ((?x4848 (* ?x4594 ?x2621)))
 (let ((?x4685 (+ (+ (+ (+ ?x1179 (* 7.0 |v15:2|)) (* 3.0 |v5:12|)) (* ?x2682 ?x713)) ?x4848)))
 (let ((?x2326 (* 19.0 ?x2621)))
 (let ((?x3846 (+ (+ (+ (+ (+ ?x3851 ?x2761) (* 9.0 |v15:2|)) (* 12.0 |v0:17|)) ?x8267) ?x2326)))
 (let (($x2829 (or (<= (+ ?x3846 ?x741) ?x5263) (<= (+ (+ ?x4685 (* ?x5845 |v13:4|)) ?x4875) ?x4805))))
 (let (($x3654 (and (or (or $x2829 $x4955) (and $x5087 $x6820)) (and $x3762 (and $x7663 (or (<= ?x2531 16.0) (<= ?x2611 3.0)))))))
 (let (($x4361 (and $x3654 (and (and (<= (+ (+ ?x5392 ?x6349) ?x7408) 9.0) (or $x4190 $x3976)) $x5890))))
 (let (($x5289 (or (and $x4361 (or $x870 (<= (+ ?x8180 (* ?x1676 ?x8351)) ?x2797))) (or (or $x574 $x1960) (or $x3116 (and $x1800 $x3269))))))
 (let (($x4184 (not (= |v6:11_st| (RMk1 val!9137)))))
 (let (($x3947 (not (= |v7:10_st| (RMk1 val!9136)))))
 (let (($x3746 (not (= |v8:9_st| (RMk1 val!9135)))))
 (let (($x3505 (not (= |v9:8_st| (RMk1 val!9134)))))
 (let (($x1202 (not (= |v10:7_st| (RMk1 val!9133)))))
 (let (($x2351 (not (= |v11:6_st| (RMk1 val!9132)))))
 (and $x2351 $x1202 $x3505 $x3746 $x3947 $x4184 $x5289)))))))))))))))))))))))))))))))))))))))))))))))))))))))))))))))))))))))))))))))))))))))))))))))))))))))))))))))))))))))))))))))))))))))))))))))))))))))))))))))))))))))))))))))))))))))))))))))))))))))))))))))))))))))))))))))))))))))))))))))))))))))))))))))))))))))))))))))))))))))))))))))))))))))))))))))))))))))))))))))))))))))))))))))))))))))))))))))))))))))))))))))))))))))))))))))))))))))
 )
 )
 )
 )
 )
 )
 )
 )
 )
 )
 )
 )
 )
 )
 )
 )
 )
 )
(check-sat)
